\ Generated by MPModelProtoExporter
\   Name             : 
\   Format           : Free
\   Constraints      : 118
\   Variables        : 78
\     Binary         : 78
\     Integer        : 0
\     Continuous     : 0
Minimize
 Obj: +363.924 mainDB_n1 +48.187 mainDB_n2 +363.924 mainDB_n7 +40.128 imgQueue_n1 +20.064 imgQueue_n4 +5.408 imgQueue_n2 +20.064 imgQueue_n6 +40.128 imgQueue_n7 +40.128 snsQueue_n1 +20.064 snsQueue_n4 +5.408 snsQueue_n2 +20.064 snsQueue_n6 +40.128 snsQueue_n7 +40.128 ctrlQueue_n1 +20.064 ctrlQueue_n4 +5.408 ctrlQueue_n2 +20.064 ctrlQueue_n6 +40.128 ctrlQueue_n7 +6.15 recognizer_n5 +31.616 visualizer_n1 +31.616 visualizer_n7 +0.029 calibre_n5 +0.033 calibre_n3 +0.2592 rectify_n1 +0.3234 rectify_n4 +0.0388 rectify_n2 +0.3234 rectify_n6 +0.2592 rectify_n7 +0.026 roiSel_n5 
Subject to
 one_node_mainDB: +1 mainDB_n1 +1 mainDB_n2 +1 mainDB_n7  = 1
 one_node_imgQueue: +1 imgQueue_n1 +1 imgQueue_n4 +1 imgQueue_n2 +1 imgQueue_n6 +1 imgQueue_n7  = 1
 one_node_snsQueue: +1 snsQueue_n1 +1 snsQueue_n4 +1 snsQueue_n2 +1 snsQueue_n6 +1 snsQueue_n7  = 1
 one_node_ctrlQueue: +1 ctrlQueue_n1 +1 ctrlQueue_n4 +1 ctrlQueue_n2 +1 ctrlQueue_n6 +1 ctrlQueue_n7  = 1
 one_node_recognizer: +1 recognizer_n5  = 1
 one_node_visualizer: +1 visualizer_n1 +1 visualizer_n7  = 1
 one_node_calibre: +1 calibre_n5 +1 calibre_n3  = 1
 one_node_rectify: +1 rectify_n1 +1 rectify_n4 +1 rectify_n2 +1 rectify_n6 +1 rectify_n7  = 1
 one_node_roiSel: +1 roiSel_n5  = 1
 hw_n1: -1023 b_n1 +50 mainDB_n1 +5 imgQueue_n1 +5 snsQueue_n1 +5 ctrlQueue_n1 +4 visualizer_n1 +4 rectify_n1  <= 0
 hw_n4: -255 b_n4 +5 imgQueue_n4 +5 snsQueue_n4 +5 ctrlQueue_n4 +4 rectify_n4  <= 0
 hw_n2: -255 b_n2 +50 mainDB_n2 +5 imgQueue_n2 +5 snsQueue_n2 +5 ctrlQueue_n2 +4 rectify_n2  <= 0
 hw_n0: -127 b_n0  <= 0
 hw_n5: -63 b_n5 +10 recognizer_n5 +8 calibre_n5 +3 roiSel_n5  <= 0
 hw_n6: -255 b_n6 +5 imgQueue_n6 +5 snsQueue_n6 +5 ctrlQueue_n6 +4 rectify_n6  <= 0
 hw_n7: -1023 b_n7 +50 mainDB_n7 +5 imgQueue_n7 +5 snsQueue_n7 +5 ctrlQueue_n7 +4 visualizer_n7 +4 rectify_n7  <= 0
 hw_n3: -31 b_n3 +8 calibre_n3  <= 0
 budget: +1 b_n1 +1 b_n4 +1 b_n2 +1 b_n0 +1 b_n5 +1 b_n6 +1 b_n7 +1 b_n3  <= 3
 lin_1_imgQueue_n1_calibre_n5: -1 imgQueue_n1 +1 imgQueue_n1_calibre_n5  <= 0
 lin_2_imgQueue_n1_calibre_n5: -1 calibre_n5 +1 imgQueue_n1_calibre_n5  <= 0
 lin_3_imgQueue_n1_calibre_n5: -1 imgQueue_n1 -1 calibre_n5 +1 imgQueue_n1_calibre_n5  >= -1
 imgQueue_n1_calibre_n5_lat: +148 imgQueue_n1_calibre_n5  <= 30
 lin_1_rectify_n1_roiSel_n5: -1 rectify_n1 +1 rectify_n1_roiSel_n5  <= 0
 lin_2_rectify_n1_roiSel_n5: -1 roiSel_n5 +1 rectify_n1_roiSel_n5  <= 0
 lin_3_rectify_n1_roiSel_n5: -1 rectify_n1 -1 roiSel_n5 +1 rectify_n1_roiSel_n5  >= -1
 rectify_n1_roiSel_n5_lat: +148 rectify_n1_roiSel_n5  <= 40
 lin_1_rectify_n1_recognizer_n5: -1 rectify_n1 +1 rectify_n1_recognizer_n5  <= 0
 lin_2_rectify_n1_recognizer_n5: -1 recognizer_n5 +1 rectify_n1_recognizer_n5  <= 0
 lin_3_rectify_n1_recognizer_n5: -1 recognizer_n5 -1 rectify_n1 +1 rectify_n1_recognizer_n5  >= -1
 rectify_n1_recognizer_n5_lat: +148 rectify_n1_recognizer_n5  <= 40
 n1_n5_bw_rhs: +72 imgQueue_n1_calibre_n5 +72 rectify_n1_roiSel_n5 +72 rectify_n1_recognizer_n5  <= 17
 n1_n5_bw_lhs: +72 imgQueue_n1_calibre_n5 +72 rectify_n1_roiSel_n5 +72 rectify_n1_recognizer_n5  >= 0
 lin_1_imgQueue_n4_calibre_n5: -1 imgQueue_n4 +1 imgQueue_n4_calibre_n5  <= 0
 lin_2_imgQueue_n4_calibre_n5: -1 calibre_n5 +1 imgQueue_n4_calibre_n5  <= 0
 lin_3_imgQueue_n4_calibre_n5: -1 imgQueue_n4 -1 calibre_n5 +1 imgQueue_n4_calibre_n5  >= -1
 imgQueue_n4_calibre_n5_lat: +38 imgQueue_n4_calibre_n5  <= 30
 lin_1_rectify_n4_roiSel_n5: -1 rectify_n4 +1 rectify_n4_roiSel_n5  <= 0
 lin_2_rectify_n4_roiSel_n5: -1 roiSel_n5 +1 rectify_n4_roiSel_n5  <= 0
 lin_3_rectify_n4_roiSel_n5: -1 rectify_n4 -1 roiSel_n5 +1 rectify_n4_roiSel_n5  >= -1
 rectify_n4_roiSel_n5_lat: +38 rectify_n4_roiSel_n5  <= 40
 lin_1_rectify_n4_recognizer_n5: -1 rectify_n4 +1 rectify_n4_recognizer_n5  <= 0
 lin_2_rectify_n4_recognizer_n5: -1 recognizer_n5 +1 rectify_n4_recognizer_n5  <= 0
 lin_3_rectify_n4_recognizer_n5: -1 recognizer_n5 -1 rectify_n4 +1 rectify_n4_recognizer_n5  >= -1
 rectify_n4_recognizer_n5_lat: +38 rectify_n4_recognizer_n5  <= 40
 n4_n5_bw_rhs: +72 imgQueue_n4_calibre_n5 +72 rectify_n4_roiSel_n5 +72 rectify_n4_recognizer_n5  <= 47
 n4_n5_bw_lhs: +72 imgQueue_n4_calibre_n5 +72 rectify_n4_roiSel_n5 +72 rectify_n4_recognizer_n5  >= 0
 lin_1_imgQueue_n2_rectify_n6: -1 imgQueue_n2 +1 imgQueue_n2_rectify_n6  <= 0
 lin_2_imgQueue_n2_rectify_n6: -1 rectify_n6 +1 imgQueue_n2_rectify_n6  <= 0
 lin_3_imgQueue_n2_rectify_n6: -1 imgQueue_n2 -1 rectify_n6 +1 imgQueue_n2_rectify_n6  >= -1
 imgQueue_n2_rectify_n6_lat: +25 imgQueue_n2_rectify_n6  <= 30
 n2_n6_bw_rhs: +72 imgQueue_n2_rectify_n6  <= 47
 n2_n6_bw_lhs: +72 imgQueue_n2_rectify_n6  >= 0
 lin_1_imgQueue_n2_rectify_n4: -1 imgQueue_n2 +1 imgQueue_n2_rectify_n4  <= 0
 lin_2_imgQueue_n2_rectify_n4: -1 rectify_n4 +1 imgQueue_n2_rectify_n4  <= 0
 lin_3_imgQueue_n2_rectify_n4: -1 imgQueue_n2 -1 rectify_n4 +1 imgQueue_n2_rectify_n4  >= -1
 imgQueue_n2_rectify_n4_lat: +25 imgQueue_n2_rectify_n4  <= 30
 n2_n4_bw_rhs: +72 imgQueue_n2_rectify_n4  <= 47
 n2_n4_bw_lhs: +72 imgQueue_n2_rectify_n4  >= 0
 lin_1_water_n5_snsQueue_n6: +1 water_n5_snsQueue_n6  <= 1
 lin_2_water_n5_snsQueue_n6: -1 snsQueue_n6 +1 water_n5_snsQueue_n6  <= 0
 lin_3_water_n5_snsQueue_n6: -1 snsQueue_n6 +1 water_n5_snsQueue_n6  >= 0
 water_n5_snsQueue_n6_lat: +38 water_n5_snsQueue_n6  <= 70
 lin_1_energy_n5_ctrlQueue_n6: +1 energy_n5_ctrlQueue_n6  <= 1
 lin_2_energy_n5_ctrlQueue_n6: -1 ctrlQueue_n6 +1 energy_n5_ctrlQueue_n6  <= 0
 lin_3_energy_n5_ctrlQueue_n6: -1 ctrlQueue_n6 +1 energy_n5_ctrlQueue_n6  >= 0
 energy_n5_ctrlQueue_n6_lat: +38 energy_n5_ctrlQueue_n6  <= 70
 n5_n6_bw_rhs: +72 water_n5_snsQueue_n6 +72 energy_n5_ctrlQueue_n6  <= 77
 n5_n6_bw_lhs: +72 water_n5_snsQueue_n6 +72 energy_n5_ctrlQueue_n6  >= 0
 lin_1_water_n5_snsQueue_n7: +1 water_n5_snsQueue_n7  <= 1
 lin_2_water_n5_snsQueue_n7: -1 snsQueue_n7 +1 water_n5_snsQueue_n7  <= 0
 lin_3_water_n5_snsQueue_n7: -1 snsQueue_n7 +1 water_n5_snsQueue_n7  >= 0
 water_n5_snsQueue_n7_lat: +148 water_n5_snsQueue_n7  <= 70
 lin_1_energy_n5_ctrlQueue_n7: +1 energy_n5_ctrlQueue_n7  <= 1
 lin_2_energy_n5_ctrlQueue_n7: -1 ctrlQueue_n7 +1 energy_n5_ctrlQueue_n7  <= 0
 lin_3_energy_n5_ctrlQueue_n7: -1 ctrlQueue_n7 +1 energy_n5_ctrlQueue_n7  >= 0
 energy_n5_ctrlQueue_n7_lat: +148 energy_n5_ctrlQueue_n7  <= 70
 lin_1_recognizer_n5_visualizer_n7: -1 recognizer_n5 +1 recognizer_n5_visualizer_n7  <= 0
 lin_2_recognizer_n5_visualizer_n7: -1 visualizer_n7 +1 recognizer_n5_visualizer_n7  <= 0
 lin_3_recognizer_n5_visualizer_n7: -1 recognizer_n5 -1 visualizer_n7 +1 recognizer_n5_visualizer_n7  >= -1
 recognizer_n5_visualizer_n7_lat: +148 recognizer_n5_visualizer_n7  <= 50
 n5_n7_bw_rhs: +72 water_n5_snsQueue_n7 +72 energy_n5_ctrlQueue_n7 +72 recognizer_n5_visualizer_n7  <= 47
 n5_n7_bw_lhs: +72 water_n5_snsQueue_n7 +72 energy_n5_ctrlQueue_n7 +72 recognizer_n5_visualizer_n7  >= 0
 lin_1_snsQueue_n6_mainDB_n7: -1 snsQueue_n6 +1 snsQueue_n6_mainDB_n7  <= 0
 lin_2_snsQueue_n6_mainDB_n7: -1 mainDB_n7 +1 snsQueue_n6_mainDB_n7  <= 0
 lin_3_snsQueue_n6_mainDB_n7: -1 mainDB_n7 -1 snsQueue_n6 +1 snsQueue_n6_mainDB_n7  >= -1
 snsQueue_n6_mainDB_n7_lat: +110 snsQueue_n6_mainDB_n7  <= 70
 lin_1_ctrlQueue_n6_mainDB_n7: -1 ctrlQueue_n6 +1 ctrlQueue_n6_mainDB_n7  <= 0
 lin_2_ctrlQueue_n6_mainDB_n7: -1 mainDB_n7 +1 ctrlQueue_n6_mainDB_n7  <= 0
 lin_3_ctrlQueue_n6_mainDB_n7: -1 mainDB_n7 -1 ctrlQueue_n6 +1 ctrlQueue_n6_mainDB_n7  >= -1
 ctrlQueue_n6_mainDB_n7_lat: +110 ctrlQueue_n6_mainDB_n7  <= 70
 lin_1_imgQueue_n6_mainDB_n7: -1 imgQueue_n6 +1 imgQueue_n6_mainDB_n7  <= 0
 lin_2_imgQueue_n6_mainDB_n7: -1 mainDB_n7 +1 imgQueue_n6_mainDB_n7  <= 0
 lin_3_imgQueue_n6_mainDB_n7: -1 mainDB_n7 -1 imgQueue_n6 +1 imgQueue_n6_mainDB_n7  >= -1
 imgQueue_n6_mainDB_n7_lat: +110 imgQueue_n6_mainDB_n7  <= 200
 lin_1_imgQueue_n6_rectify_n7: -1 imgQueue_n6 +1 imgQueue_n6_rectify_n7  <= 0
 lin_2_imgQueue_n6_rectify_n7: -1 rectify_n7 +1 imgQueue_n6_rectify_n7  <= 0
 lin_3_imgQueue_n6_rectify_n7: -1 imgQueue_n6 -1 rectify_n7 +1 imgQueue_n6_rectify_n7  >= -1
 imgQueue_n6_rectify_n7_lat: +110 imgQueue_n6_rectify_n7  <= 30
 lin_1_imgQueue_n6_visualizer_n7: -1 imgQueue_n6 +1 imgQueue_n6_visualizer_n7  <= 0
 lin_2_imgQueue_n6_visualizer_n7: -1 visualizer_n7 +1 imgQueue_n6_visualizer_n7  <= 0
 lin_3_imgQueue_n6_visualizer_n7: -1 imgQueue_n6 -1 visualizer_n7 +1 imgQueue_n6_visualizer_n7  >= -1
 imgQueue_n6_visualizer_n7_lat: +110 imgQueue_n6_visualizer_n7  <= 50
 n6_n7_bw_rhs: +72 snsQueue_n6_mainDB_n7 +72 ctrlQueue_n6_mainDB_n7 +72 imgQueue_n6_mainDB_n7 +72 imgQueue_n6_rectify_n7 +72 imgQueue_n6_visualizer_n7  <= 997
 n6_n7_bw_lhs: +72 snsQueue_n6_mainDB_n7 +72 ctrlQueue_n6_mainDB_n7 +72 imgQueue_n6_mainDB_n7 +72 imgQueue_n6_rectify_n7 +72 imgQueue_n6_visualizer_n7  >= 0
 one_link_soil_snsQueue:  = 1
 one_link_heat_snsQueue:  = 1
 one_link_water_snsQueue: +1 water_n5_snsQueue_n7  = 1
 one_link_nutrient_ctrlQueue:  = 1
 one_link_energy_ctrlQueue: +1 energy_n5_ctrlQueue_n7  = 1
 one_link_piCamera1_imgQueue:  = 1
 one_link_piCamera2_imgQueue:  = 1
 one_link_snsQueue_mainDB: +1 snsQueue_n6_mainDB_n7  = 1
 one_link_ctrlQueue_mainDB: +1 ctrlQueue_n6_mainDB_n7  = 1
 one_link_imgQueue_mainDB: +1 imgQueue_n6_mainDB_n7  = 1
 one_link_imgQueue_calibre: +1 imgQueue_n4_calibre_n5  = 1
 one_link_calibre_piCamera1:  = 1
 one_link_calibre_piCamera2:  = 1
 one_link_imgQueue_rectify: +1 imgQueue_n6_rectify_n7  = 1
 one_link_rectify_roiSel: +1 rectify_n4_roiSel_n5  = 1
 one_link_rectify_recognizer: +1 rectify_n4_recognizer_n5  = 1
 one_link_calibre_recognizer:  = 1
 one_link_roiSel_recognizer:  = 1
 one_link_recognizer_visualizer: +1 recognizer_n5_visualizer_n7  = 1
 one_link_imgQueue_visualizer: +1 imgQueue_n6_visualizer_n7  = 1
 one_link_visualizer_arViewer: +1 imgQueue_n4_rectify_n4 +1 imgQueue_n6_rectify_n6 +1 imgQueue_n2_rectify_n2 +1 roiSel_n5_recognizer_n5 +1 imgQueue_n1_visualizer_n1 +1 imgQueue_n7_visualizer_n7  = 1
Bounds
 0 <= b_n1 <= 1
 0 <= b_n4 <= 1
 0 <= b_n2 <= 1
 0 <= b_n0 <= 1
 0 <= b_n5 <= 1
 0 <= b_n6 <= 1
 0 <= b_n7 <= 1
 0 <= b_n3 <= 1
 0 <= mainDB_n1 <= 1
 0 <= mainDB_n2 <= 1
 0 <= mainDB_n7 <= 1
 0 <= imgQueue_n1 <= 1
 0 <= imgQueue_n4 <= 1
 0 <= imgQueue_n2 <= 1
 0 <= imgQueue_n6 <= 1
 0 <= imgQueue_n7 <= 1
 0 <= snsQueue_n1 <= 1
 0 <= snsQueue_n4 <= 1
 0 <= snsQueue_n2 <= 1
 0 <= snsQueue_n6 <= 1
 0 <= snsQueue_n7 <= 1
 0 <= ctrlQueue_n1 <= 1
 0 <= ctrlQueue_n4 <= 1
 0 <= ctrlQueue_n2 <= 1
 0 <= ctrlQueue_n6 <= 1
 0 <= ctrlQueue_n7 <= 1
 0 <= recognizer_n5 <= 1
 0 <= visualizer_n1 <= 1
 0 <= visualizer_n7 <= 1
 0 <= calibre_n5 <= 1
 0 <= calibre_n3 <= 1
 0 <= rectify_n1 <= 1
 0 <= rectify_n4 <= 1
 0 <= rectify_n2 <= 1
 0 <= rectify_n6 <= 1
 0 <= rectify_n7 <= 1
 0 <= roiSel_n5 <= 1
 0 <= imgQueue_n1_calibre_n5 <= 1
 0 <= rectify_n1_roiSel_n5 <= 1
 0 <= rectify_n1_recognizer_n5 <= 1
 0 <= imgQueue_n4_calibre_n5 <= 1
 0 <= rectify_n4_roiSel_n5 <= 1
 0 <= rectify_n4_recognizer_n5 <= 1
 0 <= imgQueue_n2_rectify_n6 <= 1
 0 <= imgQueue_n2_rectify_n4 <= 1
 0 <= water_n5_snsQueue_n6 <= 1
 0 <= energy_n5_ctrlQueue_n6 <= 1
 0 <= water_n5_snsQueue_n7 <= 1
 0 <= energy_n5_ctrlQueue_n7 <= 1
 0 <= recognizer_n5_visualizer_n7 <= 1
 0 <= snsQueue_n6_mainDB_n7 <= 1
 0 <= ctrlQueue_n6_mainDB_n7 <= 1
 0 <= imgQueue_n6_mainDB_n7 <= 1
 0 <= imgQueue_n6_rectify_n7 <= 1
 0 <= imgQueue_n6_visualizer_n7 <= 1
 0 <= imgQueue_n4_rectify_n4 <= 1
 0 <= imgQueue_n6_rectify_n6 <= 1
 0 <= imgQueue_n2_rectify_n2 <= 1
 0 <= roiSel_n5_recognizer_n5 <= 1
 0 <= imgQueue_n1_visualizer_n1 <= 1
 0 <= imgQueue_n7_visualizer_n7 <= 1
Binaries
 b_n1
 b_n4
 b_n2
 b_n0
 b_n5
 b_n6
 b_n7
 b_n3
 mainDB_n1
 mainDB_n2
 mainDB_n7
 imgQueue_n1
 imgQueue_n4
 imgQueue_n2
 imgQueue_n6
 imgQueue_n7
 snsQueue_n1
 snsQueue_n4
 snsQueue_n2
 snsQueue_n6
 snsQueue_n7
 ctrlQueue_n1
 ctrlQueue_n4
 ctrlQueue_n2
 ctrlQueue_n6
 ctrlQueue_n7
 recognizer_n5
 visualizer_n1
 visualizer_n7
 calibre_n5
 calibre_n3
 rectify_n1
 rectify_n4
 rectify_n2
 rectify_n6
 rectify_n7
 roiSel_n5
 imgQueue_n1_calibre_n5
 rectify_n1_roiSel_n5
 rectify_n1_recognizer_n5
 imgQueue_n4_calibre_n5
 rectify_n4_roiSel_n5
 rectify_n4_recognizer_n5
 imgQueue_n2_rectify_n6
 imgQueue_n2_rectify_n4
 water_n5_snsQueue_n6
 energy_n5_ctrlQueue_n6
 water_n5_snsQueue_n7
 energy_n5_ctrlQueue_n7
 recognizer_n5_visualizer_n7
 snsQueue_n6_mainDB_n7
 ctrlQueue_n6_mainDB_n7
 imgQueue_n6_mainDB_n7
 imgQueue_n6_rectify_n7
 imgQueue_n6_visualizer_n7
 imgQueue_n4_rectify_n4
 imgQueue_n6_rectify_n6
 imgQueue_n2_rectify_n2
 roiSel_n5_recognizer_n5
 imgQueue_n1_visualizer_n1
 imgQueue_n7_visualizer_n7
End

